problem_generation/data/GISP/train/er_n=60_m=1068_p=0.60_SET2_setparam=100.00_alpha=0.50_127.lp
maximize
OBJ:100x0 + 100x1 + 100x2 + 100x3 + 100x4 + 100x5 + 100x6 + 100x7 + 100x8 + 100x9 + 100x10 + 100x11 + 100x12 + 100x13 + 100x14 + 100x15 + 100x16 + 100x17 + 100x18 + 100x19 + 100x20 + 100x21 + 100x22 + 100x23 + 100x24 + 100x25 + 100x26 + 100x27 + 100x28 + 100x29 + 100x30 + 100x31 + 100x32 + 100x33 + 100x34 + 100x35 + 100x36 + 100x37 + 100x38 + 100x39 + 100x40 + 100x41 + 100x42 + 100x43 + 100x44 + 100x45 + 100x46 + 100x47 + 100x48 + 100x49 + 100x50 + 100x51 + 100x52 + 100x53 + 100x54 + 100x55 + 100x56 + 100x57 + 100x58 + 100x59 - y15_21 - y36_53 - y7_26 - y26_39 - y17_58 - y7_35 - y29_32 - y0_5 - y29_41 - y48_54 - y21_37 - y29_50 - y6_57 - y11_23 - y10_36 - y41_51 - y33_56 - y14_15 - y3_24 - y14_24 - y22_37 - y3_33 - y7_12 - y36_48 - y15_25 - y7_30 - y9_49 - y18_30 - y9_58 - y6_34 - y40_54 - y10_22 - y2_27 - y10_40 - y10_49 - y3_10 - y2_54 - y43_55 - y16_56 - y55_56 - y7_16 - y5_46 - y17_57 - y6_29 - y6_38 - y48_53 - y21_36 - y10_26 - y33_37 - y2_31 - y2_40 - y32_41 - y51_54 - y43_50 - y13_46 - y3_23 - y43_59 - y36_47 - y47_56 - y9_39 - y29_44 - y6_51 - y21_49 - y39_48 - y2_17 - y10_39 - y23_58 - y2_35 - y32_36 - y35_41 - y14_18 - y1_57 - y13_59 - y24_59 - y36_51 - y47_51 - y5_45 - y6_10 - y17_47 - y50_53 - y6_28 - y29_30 - y21_26 - y6_37 - y42_58 - y6_46 - y20_48 - y31_48 - y12_44 - y2_21 - y31_57 - y23_53 - y2_30 - y32_40 - y24_36 - y32_49 - y16_32 - y32_58 - y1_52 - y35_54 - y9_11 - y16_59 - y17_24 - y9_20 - y28_33 - y17_42 - y6_23 - y42_44 - y50_57 - y8_51 - y42_53 - y31_34 - y12_39 - y4_44 - y23_57 - y13_22 - y32_35 - y43_44 - y16_36 - y1_47 - y16_45 - y1_56 - y17_19 - y19_55 - y12_43 - y23_43 - y4_57 - y32_39 - y1_33 - y24_35 - y24_44 - y16_49 - y38_46 - y9_28 - y5_39 - y7_58 - y18_58 - y8_41 - y30_41 - y50_56 - y8_50 - y30_50 - y30_59 - y0_55 - y39_46 - y23_29 - y31_42 - y20_51 - y4_34 - y1_10 - y4_43 - y23_56 - y16_26 - y5_7 - y38_41 - y15_57 - y18_53 - y30_36 - y0_32 - y30_45 - y42_47 - y27_58 - y42_56 - y0_50 - y12_15 - y20_28 - y39_41 - y4_29 - y1_5 - y34_48 - y45_48 - y24_25 - y22_55 - y26_34 - y5_11 - y15_52 - y8_13 - y18_57 - y19_22 - y27_35 - y8_31 - y30_31 - y19_40 - y0_36 - y8_49 - y30_49 - y11_45 - y4_6 - y11_54 - y4_15 - y12_28 - y23_28 - y12_37 - y53_56 - y37_39 - y34_52 - y45_52 - y3_55 - y5_6 - y26_38 - y18_34 - y15_47 - y18_43 - y26_56 - y18_52 - y8_17 - y11_13 - y27_39 - y0_22 - y19_35 - y30_35 - y8_44 - y19_44 - y12_14 - y12_23 - y4_19 - y25_51 - y2_58 - y22_36 - y45_47 - y37_43 - y22_54 - y34_56 - y3_59 - y18_20 - y15_33 - y26_33 - y7_38 - y18_38 - y15_51 - y8_12 - y0_8 - y18_56 - y48_57 - y0_35 - y41_45 - y41_54 - y10_48 - y44_50 - y2_44 - y33_59 - y2_53 - y14_27 - y22_40 - y34_42 - y37_47 - y22_58 - y14_54 - y37_56 - y7_24 - y11_12 - y11_21 - y21_53 - y10_34 - y33_36 - y10_43 - y25_41 - y33_54 - y44_54 - y3_13 - y14_22 - y22_35 - y34_37 - y3_49 - y55_59 - y7_19 - y7_28 - y18_28 - y7_37 - y18_37 - y29_34 - y0_7 - y21_39 - y21_48 - y41_44 - y10_38 - y33_40 - y25_36 - y10_47 - y44_49 - y2_52 - y3_17 - y32_53 - y3_26 - y24_58 - y14_44 - y15_18 - y28_46 - y17_55 - y21_25 - y48_51 - y6_45 - y40_47 - y21_43 - y6_54 - y10_33 - y33_35 - y2_29 - y25_31 - y10_42 - y10_51 - y51_52 - y3_12 - y2_56 - y28_32 - y28_41 - y5_48 - y28_50 - y9_46 - y5_57 - y29_42 - y40_42 - y21_47 - y6_58 - y10_28 - y2_33 - y25_35 - y2_42 - y32_43 - y51_56 - y43_52 - y24_48 - y14_25 - y1_55 - y24_57 - y17_18 - y36_40 - y9_23 - y47_49 - y17_45 - y6_8 - y28_45 - y47_58 - y17_54 - y28_54 - y9_59 - y6_35 - y6_44 - y21_42 - y39_50 - y31_46 - y39_59 - y10_32 - y32_38 - y13_43 - y43_56 - y16_39 - y24_52 - y35_52 - y17_22 - y17_31 - y28_31 - y5_38 - y5_47 - y17_49 - y6_21 - y58_59 - y50_55 - y19_58 - y2_14 - y20_50 - y12_46 - y23_46 - y2_23 - y4_51 - y13_29 - y32_42 - y16_25 - y1_36 - y13_38 - y32_51 - y35_47 - y1_54 - y35_56 - y16_52 - y5_15 - y17_26 - y36_39 - y5_33 - y17_35 - y5_51 - y0_58 - y10_13 - y12_32 - y23_32 - y20_45 - y39_58 - y4_37 - y23_50 - y23_59 - y13_24 - y4_55 - y32_37 - y1_31 - y16_29 - y38_44 - y5_19 - y5_28 - y17_30 - y28_30 - y27_43 - y19_39 - y30_39 - y50_54 - y42_59 - y11_53 - y23_27 - y4_23 - y4_32 - y1_8 - y4_41 - y13_19 - y53_55 - y1_26 - y13_37 - y35_37 - y16_33 - y16_42 - y5_14 - y15_46 - y38_57 - y27_29 - y8_25 - y30_34 - y8_43 - y19_43 - y42_45 - y11_39 - y19_52 - y42_54 - y0_48 - y12_13 - y11_57 - y23_31 - y12_40 - y1_3 - y4_36 - y12_49 - y34_46 - y45_46 - y13_23 - y53_59 - y16_19 - y45_55 - y16_28 - y1_39 - y3_58 - y46_47 - y38_52 - y49_52 - y15_59 - y26_59 - y8_20 - y8_29 - y27_42 - y8_47 - y42_49 - y20_21 - y12_17 - y52_53 - y20_30 - y12_26 - y33_58 - y23_35 - y4_40 - y34_50 - y1_25 - y37_46 - y34_59 - y37_55 - y26_27 - y38_47 - y7_50 - y0_11 - y18_59 - y8_24 - y0_20 - y27_46 - y0_29 - y41_48 - y12_21 - y4_17 - y33_53 - y25_49 - y25_58 - y22_34 - y34_45 - y53_58 - y37_41 - y34_54 - y37_50 - y15_22 - y26_31 - y15_40 - y15_58 - y11_15 - y8_37 - y0_33 - y41_43 - y41_52 - y33_48 - y44_48 - y33_57 - y44_57 - y22_29 - y56_58 - y7_22 - y26_35 - y7_31 - y18_31 - y26_44 - y7_40 - y8_14 - y48_50 - y29_46 - y19_23 - y0_19 - y6_53 - y41_47 - y52_56 - y44_52 - y25_48 - y2_55 - y14_20 - y3_29 - y14_29 - y14_38
 Subject to
C1: x0+x1 <=1 
C2: x0+x3 <=1 
C3: x0+x4 <=1 
C4: x0+x5-y0_5 <=1 
C5: x0+x7-y0_7 <=1 
C6: x0+x8-y0_8 <=1 
C7: x0+x11-y0_11 <=1 
C8: x0+x13 <=1 
C9: x0+x16 <=1 
C10: x0+x18 <=1 
C11: x0+x19-y0_19 <=1 
C12: x0+x20-y0_20 <=1 
C13: x0+x22-y0_22 <=1 
C14: x0+x26 <=1 
C15: x0+x27 <=1 
C16: x0+x28 <=1 
C17: x0+x29-y0_29 <=1 
C18: x0+x30 <=1 
C19: x0+x31 <=1 
C20: x0+x32-y0_32 <=1 
C21: x0+x33-y0_33 <=1 
C22: x0+x35-y0_35 <=1 
C23: x0+x36-y0_36 <=1 
C24: x0+x37 <=1 
C25: x0+x41 <=1 
C26: x0+x44 <=1 
C27: x0+x47 <=1 
C28: x0+x48-y0_48 <=1 
C29: x0+x50-y0_50 <=1 
C30: x0+x54 <=1 
C31: x0+x55-y0_55 <=1 
C32: x0+x57 <=1 
C33: x0+x58-y0_58 <=1 
C34: x0+x59 <=1 
C35: x1+x3-y1_3 <=1 
C36: x1+x4 <=1 
C37: x1+x5-y1_5 <=1 
C38: x1+x6 <=1 
C39: x1+x8-y1_8 <=1 
C40: x1+x9 <=1 
C41: x1+x10-y1_10 <=1 
C42: x1+x11 <=1 
C43: x1+x12 <=1 
C44: x1+x13 <=1 
C45: x1+x14 <=1 
C46: x1+x16 <=1 
C47: x1+x18 <=1 
C48: x1+x21 <=1 
C49: x1+x25-y1_25 <=1 
C50: x1+x26-y1_26 <=1 
C51: x1+x27 <=1 
C52: x1+x28 <=1 
C53: x1+x29 <=1 
C54: x1+x30 <=1 
C55: x1+x31-y1_31 <=1 
C56: x1+x32 <=1 
C57: x1+x33-y1_33 <=1 
C58: x1+x34 <=1 
C59: x1+x35 <=1 
C60: x1+x36-y1_36 <=1 
C61: x1+x37 <=1 
C62: x1+x39-y1_39 <=1 
C63: x1+x41 <=1 
C64: x1+x44 <=1 
C65: x1+x45 <=1 
C66: x1+x46 <=1 
C67: x1+x47-y1_47 <=1 
C68: x1+x50 <=1 
C69: x1+x52-y1_52 <=1 
C70: x1+x54-y1_54 <=1 
C71: x1+x55-y1_55 <=1 
C72: x1+x56-y1_56 <=1 
C73: x1+x57-y1_57 <=1 
C74: x1+x59 <=1 
C75: x2+x4 <=1 
C76: x2+x5 <=1 
C77: x2+x7 <=1 
C78: x2+x10 <=1 
C79: x2+x11 <=1 
C80: x2+x13 <=1 
C81: x2+x14-y2_14 <=1 
C82: x2+x15 <=1 
C83: x2+x16 <=1 
C84: x2+x17-y2_17 <=1 
C85: x2+x19 <=1 
C86: x2+x21-y2_21 <=1 
C87: x2+x22 <=1 
C88: x2+x23-y2_23 <=1 
C89: x2+x24 <=1 
C90: x2+x25 <=1 
C91: x2+x26 <=1 
C92: x2+x27-y2_27 <=1 
C93: x2+x28 <=1 
C94: x2+x29-y2_29 <=1 
C95: x2+x30-y2_30 <=1 
C96: x2+x31-y2_31 <=1 
C97: x2+x33-y2_33 <=1 
C98: x2+x34 <=1 
C99: x2+x35-y2_35 <=1 
C100: x2+x36 <=1 
C101: x2+x40-y2_40 <=1 
C102: x2+x42-y2_42 <=1 
C103: x2+x43 <=1 
C104: x2+x44-y2_44 <=1 
C105: x2+x45 <=1 
C106: x2+x50 <=1 
C107: x2+x51 <=1 
C108: x2+x52-y2_52 <=1 
C109: x2+x53-y2_53 <=1 
C110: x2+x54-y2_54 <=1 
C111: x2+x55-y2_55 <=1 
C112: x2+x56-y2_56 <=1 
C113: x2+x58-y2_58 <=1 
C114: x2+x59 <=1 
C115: x3+x4 <=1 
C116: x3+x7 <=1 
C117: x3+x10-y3_10 <=1 
C118: x3+x12-y3_12 <=1 
C119: x3+x13-y3_13 <=1 
C120: x3+x15 <=1 
C121: x3+x16 <=1 
C122: x3+x17-y3_17 <=1 
C123: x3+x19 <=1 
C124: x3+x20 <=1 
C125: x3+x21 <=1 
C126: x3+x23-y3_23 <=1 
C127: x3+x24-y3_24 <=1 
C128: x3+x25 <=1 
C129: x3+x26-y3_26 <=1 
C130: x3+x29-y3_29 <=1 
C131: x3+x32 <=1 
C132: x3+x33-y3_33 <=1 
C133: x3+x34 <=1 
C134: x3+x36 <=1 
C135: x3+x38 <=1 
C136: x3+x40 <=1 
C137: x3+x44 <=1 
C138: x3+x45 <=1 
C139: x3+x46 <=1 
C140: x3+x47 <=1 
C141: x3+x49-y3_49 <=1 
C142: x3+x50 <=1 
C143: x3+x53 <=1 
C144: x3+x55-y3_55 <=1 
C145: x3+x56 <=1 
C146: x3+x57 <=1 
C147: x3+x58-y3_58 <=1 
C148: x3+x59-y3_59 <=1 
C149: x4+x5 <=1 
C150: x4+x6-y4_6 <=1 
C151: x4+x7 <=1 
C152: x4+x8 <=1 
C153: x4+x10 <=1 
C154: x4+x13 <=1 
C155: x4+x14 <=1 
C156: x4+x15-y4_15 <=1 
C157: x4+x17-y4_17 <=1 
C158: x4+x19-y4_19 <=1 
C159: x4+x23-y4_23 <=1 
C160: x4+x26 <=1 
C161: x4+x27 <=1 
C162: x4+x29-y4_29 <=1 
C163: x4+x30 <=1 
C164: x4+x32-y4_32 <=1 
C165: x4+x34-y4_34 <=1 
C166: x4+x36-y4_36 <=1 
C167: x4+x37-y4_37 <=1 
C168: x4+x38 <=1 
C169: x4+x40-y4_40 <=1 
C170: x4+x41-y4_41 <=1 
C171: x4+x42 <=1 
C172: x4+x43-y4_43 <=1 
C173: x4+x44-y4_44 <=1 
C174: x4+x46 <=1 
C175: x4+x51-y4_51 <=1 
C176: x4+x52 <=1 
C177: x4+x53 <=1 
C178: x4+x54 <=1 
C179: x4+x55-y4_55 <=1 
C180: x4+x57-y4_57 <=1 
C181: x4+x58 <=1 
C182: x5+x6-y5_6 <=1 
C183: x5+x7-y5_7 <=1 
C184: x5+x8 <=1 
C185: x5+x9 <=1 
C186: x5+x10 <=1 
C187: x5+x11-y5_11 <=1 
C188: x5+x13 <=1 
C189: x5+x14-y5_14 <=1 
C190: x5+x15-y5_15 <=1 
C191: x5+x17 <=1 
C192: x5+x18 <=1 
C193: x5+x19-y5_19 <=1 
C194: x5+x22 <=1 
C195: x5+x27 <=1 
C196: x5+x28-y5_28 <=1 
C197: x5+x29 <=1 
C198: x5+x30 <=1 
C199: x5+x31 <=1 
C200: x5+x32 <=1 
C201: x5+x33-y5_33 <=1 
C202: x5+x34 <=1 
C203: x5+x36 <=1 
C204: x5+x38-y5_38 <=1 
C205: x5+x39-y5_39 <=1 
C206: x5+x40 <=1 
C207: x5+x44 <=1 
C208: x5+x45-y5_45 <=1 
C209: x5+x46-y5_46 <=1 
C210: x5+x47-y5_47 <=1 
C211: x5+x48-y5_48 <=1 
C212: x5+x49 <=1 
C213: x5+x51-y5_51 <=1 
C214: x5+x57-y5_57 <=1 
C215: x6+x8-y6_8 <=1 
C216: x6+x10-y6_10 <=1 
C217: x6+x11 <=1 
C218: x6+x15 <=1 
C219: x6+x18 <=1 
C220: x6+x19 <=1 
C221: x6+x20 <=1 
C222: x6+x21-y6_21 <=1 
C223: x6+x23-y6_23 <=1 
C224: x6+x26 <=1 
C225: x6+x27 <=1 
C226: x6+x28-y6_28 <=1 
C227: x6+x29-y6_29 <=1 
C228: x6+x30 <=1 
C229: x6+x31 <=1 
C230: x6+x32 <=1 
C231: x6+x34-y6_34 <=1 
C232: x6+x35-y6_35 <=1 
C233: x6+x37-y6_37 <=1 
C234: x6+x38-y6_38 <=1 
C235: x6+x39 <=1 
C236: x6+x40 <=1 
C237: x6+x42 <=1 
C238: x6+x43 <=1 
C239: x6+x44-y6_44 <=1 
C240: x6+x45-y6_45 <=1 
C241: x6+x46-y6_46 <=1 
C242: x6+x47 <=1 
C243: x6+x49 <=1 
C244: x6+x51-y6_51 <=1 
C245: x6+x52 <=1 
C246: x6+x53-y6_53 <=1 
C247: x6+x54-y6_54 <=1 
C248: x6+x57-y6_57 <=1 
C249: x6+x58-y6_58 <=1 
C250: x7+x9 <=1 
C251: x7+x11 <=1 
C252: x7+x12-y7_12 <=1 
C253: x7+x13 <=1 
C254: x7+x14 <=1 
C255: x7+x16-y7_16 <=1 
C256: x7+x17 <=1 
C257: x7+x19-y7_19 <=1 
C258: x7+x22-y7_22 <=1 
C259: x7+x24-y7_24 <=1 
C260: x7+x25 <=1 
C261: x7+x26-y7_26 <=1 
C262: x7+x28-y7_28 <=1 
C263: x7+x30-y7_30 <=1 
C264: x7+x31-y7_31 <=1 
C265: x7+x32 <=1 
C266: x7+x33 <=1 
C267: x7+x35-y7_35 <=1 
C268: x7+x36 <=1 
C269: x7+x37-y7_37 <=1 
C270: x7+x38-y7_38 <=1 
C271: x7+x40-y7_40 <=1 
C272: x7+x43 <=1 
C273: x7+x44 <=1 
C274: x7+x46 <=1 
C275: x7+x48 <=1 
C276: x7+x49 <=1 
C277: x7+x50-y7_50 <=1 
C278: x7+x51 <=1 
C279: x7+x54 <=1 
C280: x7+x56 <=1 
C281: x7+x57 <=1 
C282: x7+x58-y7_58 <=1 
C283: x8+x9 <=1 
C284: x8+x10 <=1 
C285: x8+x12-y8_12 <=1 
C286: x8+x13-y8_13 <=1 
C287: x8+x14-y8_14 <=1 
C288: x8+x17-y8_17 <=1 
C289: x8+x20-y8_20 <=1 
C290: x8+x21 <=1 
C291: x8+x22 <=1 
C292: x8+x23 <=1 
C293: x8+x24-y8_24 <=1 
C294: x8+x25-y8_25 <=1 
C295: x8+x28 <=1 
C296: x8+x29-y8_29 <=1 
C297: x8+x31-y8_31 <=1 
C298: x8+x32 <=1 
C299: x8+x33 <=1 
C300: x8+x37-y8_37 <=1 
C301: x8+x41-y8_41 <=1 
C302: x8+x43-y8_43 <=1 
C303: x8+x44-y8_44 <=1 
C304: x8+x46 <=1 
C305: x8+x47-y8_47 <=1 
C306: x8+x48 <=1 
C307: x8+x49-y8_49 <=1 
C308: x8+x50-y8_50 <=1 
C309: x8+x51-y8_51 <=1 
C310: x8+x53 <=1 
C311: x8+x58 <=1 
C312: x9+x11-y9_11 <=1 
C313: x9+x12 <=1 
C314: x9+x15 <=1 
C315: x9+x20-y9_20 <=1 
C316: x9+x23-y9_23 <=1 
C317: x9+x24 <=1 
C318: x9+x26 <=1 
C319: x9+x28-y9_28 <=1 
C320: x9+x30 <=1 
C321: x9+x33 <=1 
C322: x9+x35 <=1 
C323: x9+x37 <=1 
C324: x9+x39-y9_39 <=1 
C325: x9+x40 <=1 
C326: x9+x42 <=1 
C327: x9+x43 <=1 
C328: x9+x44 <=1 
C329: x9+x46-y9_46 <=1 
C330: x9+x47 <=1 
C331: x9+x48 <=1 
C332: x9+x49-y9_49 <=1 
C333: x9+x52 <=1 
C334: x9+x53 <=1 
C335: x9+x54 <=1 
C336: x9+x58-y9_58 <=1 
C337: x9+x59-y9_59 <=1 
C338: x10+x13-y10_13 <=1 
C339: x10+x14 <=1 
C340: x10+x19 <=1 
C341: x10+x20 <=1 
C342: x10+x22-y10_22 <=1 
C343: x10+x26-y10_26 <=1 
C344: x10+x28-y10_28 <=1 
C345: x10+x29 <=1 
C346: x10+x30 <=1 
C347: x10+x32-y10_32 <=1 
C348: x10+x33-y10_33 <=1 
C349: x10+x34-y10_34 <=1 
C350: x10+x36-y10_36 <=1 
C351: x10+x38-y10_38 <=1 
C352: x10+x39-y10_39 <=1 
C353: x10+x40-y10_40 <=1 
C354: x10+x41 <=1 
C355: x10+x42-y10_42 <=1 
C356: x10+x43-y10_43 <=1 
C357: x10+x44 <=1 
C358: x10+x47-y10_47 <=1 
C359: x10+x48-y10_48 <=1 
C360: x10+x49-y10_49 <=1 
C361: x10+x51-y10_51 <=1 
C362: x10+x53 <=1 
C363: x10+x54 <=1 
C364: x10+x55 <=1 
C365: x10+x59 <=1 
C366: x11+x12-y11_12 <=1 
C367: x11+x13-y11_13 <=1 
C368: x11+x14 <=1 
C369: x11+x15-y11_15 <=1 
C370: x11+x16 <=1 
C371: x11+x18 <=1 
C372: x11+x19 <=1 
C373: x11+x20 <=1 
C374: x11+x21-y11_21 <=1 
C375: x11+x22 <=1 
C376: x11+x23-y11_23 <=1 
C377: x11+x24 <=1 
C378: x11+x28 <=1 
C379: x11+x29 <=1 
C380: x11+x32 <=1 
C381: x11+x33 <=1 
C382: x11+x36 <=1 
C383: x11+x37 <=1 
C384: x11+x39-y11_39 <=1 
C385: x11+x42 <=1 
C386: x11+x45-y11_45 <=1 
C387: x11+x47 <=1 
C388: x11+x49 <=1 
C389: x11+x53-y11_53 <=1 
C390: x11+x54-y11_54 <=1 
C391: x11+x57-y11_57 <=1 
C392: x11+x58 <=1 
C393: x11+x59 <=1 
C394: x12+x13-y12_13 <=1 
C395: x12+x14-y12_14 <=1 
C396: x12+x15-y12_15 <=1 
C397: x12+x16 <=1 
C398: x12+x17-y12_17 <=1 
C399: x12+x19 <=1 
C400: x12+x20 <=1 
C401: x12+x21-y12_21 <=1 
C402: x12+x22 <=1 
C403: x12+x23-y12_23 <=1 
C404: x12+x24 <=1 
C405: x12+x25 <=1 
C406: x12+x26-y12_26 <=1 
C407: x12+x28-y12_28 <=1 
C408: x12+x29 <=1 
C409: x12+x31 <=1 
C410: x12+x32-y12_32 <=1 
C411: x12+x34 <=1 
C412: x12+x36 <=1 
C413: x12+x37-y12_37 <=1 
C414: x12+x39-y12_39 <=1 
C415: x12+x40-y12_40 <=1 
C416: x12+x41 <=1 
C417: x12+x43-y12_43 <=1 
C418: x12+x44-y12_44 <=1 
C419: x12+x46-y12_46 <=1 
C420: x12+x48 <=1 
C421: x12+x49-y12_49 <=1 
C422: x12+x52 <=1 
C423: x12+x53 <=1 
C424: x12+x54 <=1 
C425: x12+x59 <=1 
C426: x13+x14 <=1 
C427: x13+x19-y13_19 <=1 
C428: x13+x21 <=1 
C429: x13+x22-y13_22 <=1 
C430: x13+x23-y13_23 <=1 
C431: x13+x24-y13_24 <=1 
C432: x13+x26 <=1 
C433: x13+x27 <=1 
C434: x13+x28 <=1 
C435: x13+x29-y13_29 <=1 
C436: x13+x32 <=1 
C437: x13+x34 <=1 
C438: x13+x35 <=1 
C439: x13+x36 <=1 
C440: x13+x37-y13_37 <=1 
C441: x13+x38-y13_38 <=1 
C442: x13+x39 <=1 
C443: x13+x40 <=1 
C444: x13+x41 <=1 
C445: x13+x42 <=1 
C446: x13+x43-y13_43 <=1 
C447: x13+x46-y13_46 <=1 
C448: x13+x50 <=1 
C449: x13+x55 <=1 
C450: x13+x58 <=1 
C451: x13+x59-y13_59 <=1 
C452: x14+x15-y14_15 <=1 
C453: x14+x16 <=1 
C454: x14+x18-y14_18 <=1 
C455: x14+x19 <=1 
C456: x14+x20-y14_20 <=1 
C457: x14+x22-y14_22 <=1 
C458: x14+x24-y14_24 <=1 
C459: x14+x25-y14_25 <=1 
C460: x14+x27-y14_27 <=1 
C461: x14+x28 <=1 
C462: x14+x29-y14_29 <=1 
C463: x14+x33 <=1 
C464: x14+x35 <=1 
C465: x14+x36 <=1 
C466: x14+x38-y14_38 <=1 
C467: x14+x44-y14_44 <=1 
C468: x14+x47 <=1 
C469: x14+x50 <=1 
C470: x14+x51 <=1 
C471: x14+x54-y14_54 <=1 
C472: x14+x55 <=1 
C473: x14+x56 <=1 
C474: x14+x57 <=1 
C475: x14+x58 <=1 
C476: x15+x17 <=1 
C477: x15+x18-y15_18 <=1 
C478: x15+x20 <=1 
C479: x15+x21-y15_21 <=1 
C480: x15+x22-y15_22 <=1 
C481: x15+x24 <=1 
C482: x15+x25-y15_25 <=1 
C483: x15+x28 <=1 
C484: x15+x30 <=1 
C485: x15+x31 <=1 
C486: x15+x32 <=1 
C487: x15+x33-y15_33 <=1 
C488: x15+x34 <=1 
C489: x15+x36 <=1 
C490: x15+x39 <=1 
C491: x15+x40-y15_40 <=1 
C492: x15+x42 <=1 
C493: x15+x44 <=1 
C494: x15+x46-y15_46 <=1 
C495: x15+x47-y15_47 <=1 
C496: x15+x51-y15_51 <=1 
C497: x15+x52-y15_52 <=1 
C498: x15+x55 <=1 
C499: x15+x56 <=1 
C500: x15+x57-y15_57 <=1 
C501: x15+x58-y15_58 <=1 
C502: x15+x59-y15_59 <=1 
C503: x16+x18 <=1 
C504: x16+x19-y16_19 <=1 
C505: x16+x21 <=1 
C506: x16+x22 <=1 
C507: x16+x24 <=1 
C508: x16+x25-y16_25 <=1 
C509: x16+x26-y16_26 <=1 
C510: x16+x27 <=1 
C511: x16+x28-y16_28 <=1 
C512: x16+x29-y16_29 <=1 
C513: x16+x31 <=1 
C514: x16+x32-y16_32 <=1 
C515: x16+x33-y16_33 <=1 
C516: x16+x35 <=1 
C517: x16+x36-y16_36 <=1 
C518: x16+x37 <=1 
C519: x16+x38 <=1 
C520: x16+x39-y16_39 <=1 
C521: x16+x41 <=1 
C522: x16+x42-y16_42 <=1 
C523: x16+x43 <=1 
C524: x16+x45-y16_45 <=1 
C525: x16+x46 <=1 
C526: x16+x48 <=1 
C527: x16+x49-y16_49 <=1 
C528: x16+x51 <=1 
C529: x16+x52-y16_52 <=1 
C530: x16+x54 <=1 
C531: x16+x56-y16_56 <=1 
C532: x16+x59-y16_59 <=1 
C533: x17+x18-y17_18 <=1 
C534: x17+x19-y17_19 <=1 
C535: x17+x20 <=1 
C536: x17+x22-y17_22 <=1 
C537: x17+x24-y17_24 <=1 
C538: x17+x26-y17_26 <=1 
C539: x17+x28 <=1 
C540: x17+x30-y17_30 <=1 
C541: x17+x31-y17_31 <=1 
C542: x17+x34 <=1 
C543: x17+x35-y17_35 <=1 
C544: x17+x36 <=1 
C545: x17+x38 <=1 
C546: x17+x39 <=1 
C547: x17+x40 <=1 
C548: x17+x42-y17_42 <=1 
C549: x17+x43 <=1 
C550: x17+x45-y17_45 <=1 
C551: x17+x46 <=1 
C552: x17+x47-y17_47 <=1 
C553: x17+x48 <=1 
C554: x17+x49-y17_49 <=1 
C555: x17+x54-y17_54 <=1 
C556: x17+x55-y17_55 <=1 
C557: x17+x57-y17_57 <=1 
C558: x17+x58-y17_58 <=1 
C559: x18+x20-y18_20 <=1 
C560: x18+x23 <=1 
C561: x18+x24 <=1 
C562: x18+x25 <=1 
C563: x18+x28-y18_28 <=1 
C564: x18+x29 <=1 
C565: x18+x30-y18_30 <=1 
C566: x18+x31-y18_31 <=1 
C567: x18+x34-y18_34 <=1 
C568: x18+x37-y18_37 <=1 
C569: x18+x38-y18_38 <=1 
C570: x18+x40 <=1 
C571: x18+x42 <=1 
C572: x18+x43-y18_43 <=1 
C573: x18+x44 <=1 
C574: x18+x46 <=1 
C575: x18+x50 <=1 
C576: x18+x51 <=1 
C577: x18+x52-y18_52 <=1 
C578: x18+x53-y18_53 <=1 
C579: x18+x54 <=1 
C580: x18+x55 <=1 
C581: x18+x56-y18_56 <=1 
C582: x18+x57-y18_57 <=1 
C583: x18+x58-y18_58 <=1 
C584: x18+x59-y18_59 <=1 
C585: x19+x22-y19_22 <=1 
C586: x19+x23-y19_23 <=1 
C587: x19+x24 <=1 
C588: x19+x29 <=1 
C589: x19+x30 <=1 
C590: x19+x31 <=1 
C591: x19+x32 <=1 
C592: x19+x33 <=1 
C593: x19+x35-y19_35 <=1 
C594: x19+x38 <=1 
C595: x19+x39-y19_39 <=1 
C596: x19+x40-y19_40 <=1 
C597: x19+x41 <=1 
C598: x19+x42 <=1 
C599: x19+x43-y19_43 <=1 
C600: x19+x44-y19_44 <=1 
C601: x19+x46 <=1 
C602: x19+x48 <=1 
C603: x19+x52-y19_52 <=1 
C604: x19+x53 <=1 
C605: x19+x54 <=1 
C606: x19+x55-y19_55 <=1 
C607: x19+x57 <=1 
C608: x19+x58-y19_58 <=1 
C609: x19+x59 <=1 
C610: x20+x21-y20_21 <=1 
C611: x20+x22 <=1 
C612: x20+x26 <=1 
C613: x20+x27 <=1 
C614: x20+x28-y20_28 <=1 
C615: x20+x29 <=1 
C616: x20+x30-y20_30 <=1 
C617: x20+x31 <=1 
C618: x20+x33 <=1 
C619: x20+x35 <=1 
C620: x20+x38 <=1 
C621: x20+x41 <=1 
C622: x20+x43 <=1 
C623: x20+x44 <=1 
C624: x20+x45-y20_45 <=1 
C625: x20+x46 <=1 
C626: x20+x47 <=1 
C627: x20+x48-y20_48 <=1 
C628: x20+x49 <=1 
C629: x20+x50-y20_50 <=1 
C630: x20+x51-y20_51 <=1 
C631: x20+x52 <=1 
C632: x20+x55 <=1 
C633: x21+x22 <=1 
C634: x21+x23 <=1 
C635: x21+x25-y21_25 <=1 
C636: x21+x26-y21_26 <=1 
C637: x21+x28 <=1 
C638: x21+x32 <=1 
C639: x21+x33 <=1 
C640: x21+x34 <=1 
C641: x21+x36-y21_36 <=1 
C642: x21+x37-y21_37 <=1 
C643: x21+x38 <=1 
C644: x21+x39-y21_39 <=1 
C645: x21+x40 <=1 
C646: x21+x41 <=1 
C647: x21+x42-y21_42 <=1 
C648: x21+x43-y21_43 <=1 
C649: x21+x47-y21_47 <=1 
C650: x21+x48-y21_48 <=1 
C651: x21+x49-y21_49 <=1 
C652: x21+x50 <=1 
C653: x21+x51 <=1 
C654: x21+x53-y21_53 <=1 
C655: x21+x54 <=1 
C656: x21+x55 <=1 
C657: x21+x57 <=1 
C658: x21+x59 <=1 
C659: x22+x26 <=1 
C660: x22+x28 <=1 
C661: x22+x29-y22_29 <=1 
C662: x22+x30 <=1 
C663: x22+x32 <=1 
C664: x22+x34-y22_34 <=1 
C665: x22+x35-y22_35 <=1 
C666: x22+x36-y22_36 <=1 
C667: x22+x37-y22_37 <=1 
C668: x22+x39 <=1 
C669: x22+x40-y22_40 <=1 
C670: x22+x42 <=1 
C671: x22+x43 <=1 
C672: x22+x45 <=1 
C673: x22+x49 <=1 
C674: x22+x52 <=1 
C675: x22+x54-y22_54 <=1 
C676: x22+x55-y22_55 <=1 
C677: x22+x56 <=1 
C678: x22+x57 <=1 
C679: x22+x58-y22_58 <=1 
C680: x23+x24 <=1 
C681: x23+x25 <=1 
C682: x23+x26 <=1 
C683: x23+x27-y23_27 <=1 
C684: x23+x28-y23_28 <=1 
C685: x23+x29-y23_29 <=1 
C686: x23+x30 <=1 
C687: x23+x31-y23_31 <=1 
C688: x23+x32-y23_32 <=1 
C689: x23+x33 <=1 
C690: x23+x35-y23_35 <=1 
C691: x23+x38 <=1 
C692: x23+x39 <=1 
C693: x23+x41 <=1 
C694: x23+x42 <=1 
C695: x23+x43-y23_43 <=1 
C696: x23+x46-y23_46 <=1 
C697: x23+x50-y23_50 <=1 
C698: x23+x51 <=1 
C699: x23+x53-y23_53 <=1 
C700: x23+x54 <=1 
C701: x23+x55 <=1 
C702: x23+x56-y23_56 <=1 
C703: x23+x57-y23_57 <=1 
C704: x23+x58-y23_58 <=1 
C705: x23+x59-y23_59 <=1 
C706: x24+x25-y24_25 <=1 
C707: x24+x26 <=1 
C708: x24+x27 <=1 
C709: x24+x29 <=1 
C710: x24+x31 <=1 
C711: x24+x32 <=1 
C712: x24+x33 <=1 
C713: x24+x35-y24_35 <=1 
C714: x24+x36-y24_36 <=1 
C715: x24+x37 <=1 
C716: x24+x38 <=1 
C717: x24+x42 <=1 
C718: x24+x43 <=1 
C719: x24+x44-y24_44 <=1 
C720: x24+x45 <=1 
C721: x24+x47 <=1 
C722: x24+x48-y24_48 <=1 
C723: x24+x51 <=1 
C724: x24+x52-y24_52 <=1 
C725: x24+x53 <=1 
C726: x24+x57-y24_57 <=1 
C727: x24+x58-y24_58 <=1 
C728: x24+x59-y24_59 <=1 
C729: x25+x26 <=1 
C730: x25+x27 <=1 
C731: x25+x31-y25_31 <=1 
C732: x25+x34 <=1 
C733: x25+x35-y25_35 <=1 
C734: x25+x36-y25_36 <=1 
C735: x25+x37 <=1 
C736: x25+x39 <=1 
C737: x25+x41-y25_41 <=1 
C738: x25+x42 <=1 
C739: x25+x44 <=1 
C740: x25+x45 <=1 
C741: x25+x48-y25_48 <=1 
C742: x25+x49-y25_49 <=1 
C743: x25+x51-y25_51 <=1 
C744: x25+x53 <=1 
C745: x25+x56 <=1 
C746: x25+x58-y25_58 <=1 
C747: x26+x27-y26_27 <=1 
C748: x26+x29 <=1 
C749: x26+x31-y26_31 <=1 
C750: x26+x32 <=1 
C751: x26+x33-y26_33 <=1 
C752: x26+x34-y26_34 <=1 
C753: x26+x35-y26_35 <=1 
C754: x26+x36 <=1 
C755: x26+x38-y26_38 <=1 
C756: x26+x39-y26_39 <=1 
C757: x26+x40 <=1 
C758: x26+x43 <=1 
C759: x26+x44-y26_44 <=1 
C760: x26+x45 <=1 
C761: x26+x46 <=1 
C762: x26+x51 <=1 
C763: x26+x53 <=1 
C764: x26+x55 <=1 
C765: x26+x56-y26_56 <=1 
C766: x26+x59-y26_59 <=1 
C767: x27+x28 <=1 
C768: x27+x29-y27_29 <=1 
C769: x27+x33 <=1 
C770: x27+x34 <=1 
C771: x27+x35-y27_35 <=1 
C772: x27+x36 <=1 
C773: x27+x37 <=1 
C774: x27+x38 <=1 
C775: x27+x39-y27_39 <=1 
C776: x27+x42-y27_42 <=1 
C777: x27+x43-y27_43 <=1 
C778: x27+x44 <=1 
C779: x27+x46-y27_46 <=1 
C780: x27+x48 <=1 
C781: x27+x52 <=1 
C782: x27+x54 <=1 
C783: x27+x55 <=1 
C784: x27+x57 <=1 
C785: x27+x58-y27_58 <=1 
C786: x28+x30-y28_30 <=1 
C787: x28+x31-y28_31 <=1 
C788: x28+x32-y28_32 <=1 
C789: x28+x33-y28_33 <=1 
C790: x28+x37 <=1 
C791: x28+x40 <=1 
C792: x28+x41-y28_41 <=1 
C793: x28+x42 <=1 
C794: x28+x45-y28_45 <=1 
C795: x28+x46-y28_46 <=1 
C796: x28+x48 <=1 
C797: x28+x50-y28_50 <=1 
C798: x28+x51 <=1 
C799: x28+x54-y28_54 <=1 
C800: x29+x30-y29_30 <=1 
C801: x29+x31 <=1 
C802: x29+x32-y29_32 <=1 
C803: x29+x33 <=1 
C804: x29+x34-y29_34 <=1 
C805: x29+x35 <=1 
C806: x29+x39 <=1 
C807: x29+x40 <=1 
C808: x29+x41-y29_41 <=1 
C809: x29+x42-y29_42 <=1 
C810: x29+x44-y29_44 <=1 
C811: x29+x45 <=1 
C812: x29+x46-y29_46 <=1 
C813: x29+x47 <=1 
C814: x29+x50-y29_50 <=1 
C815: x29+x53 <=1 
C816: x29+x56 <=1 
C817: x30+x31-y30_31 <=1 
C818: x30+x32 <=1 
C819: x30+x34-y30_34 <=1 
C820: x30+x35-y30_35 <=1 
C821: x30+x36-y30_36 <=1 
C822: x30+x38 <=1 
C823: x30+x39-y30_39 <=1 
C824: x30+x40 <=1 
C825: x30+x41-y30_41 <=1 
C826: x30+x43 <=1 
C827: x30+x44 <=1 
C828: x30+x45-y30_45 <=1 
C829: x30+x46 <=1 
C830: x30+x49-y30_49 <=1 
C831: x30+x50-y30_50 <=1 
C832: x30+x51 <=1 
C833: x30+x52 <=1 
C834: x30+x59-y30_59 <=1 
C835: x31+x34-y31_34 <=1 
C836: x31+x36 <=1 
C837: x31+x38 <=1 
C838: x31+x41 <=1 
C839: x31+x42-y31_42 <=1 
C840: x31+x46-y31_46 <=1 
C841: x31+x48-y31_48 <=1 
C842: x31+x50 <=1 
C843: x31+x52 <=1 
C844: x31+x55 <=1 
C845: x31+x57-y31_57 <=1 
C846: x31+x59 <=1 
C847: x32+x35-y32_35 <=1 
C848: x32+x36-y32_36 <=1 
C849: x32+x37-y32_37 <=1 
C850: x32+x38-y32_38 <=1 
C851: x32+x39-y32_39 <=1 
C852: x32+x40-y32_40 <=1 
C853: x32+x41-y32_41 <=1 
C854: x32+x42-y32_42 <=1 
C855: x32+x43-y32_43 <=1 
C856: x32+x45 <=1 
C857: x32+x46 <=1 
C858: x32+x49-y32_49 <=1 
C859: x32+x50 <=1 
C860: x32+x51-y32_51 <=1 
C861: x32+x52 <=1 
C862: x32+x53-y32_53 <=1 
C863: x32+x58-y32_58 <=1 
C864: x33+x34 <=1 
C865: x33+x35-y33_35 <=1 
C866: x33+x36-y33_36 <=1 
C867: x33+x37-y33_37 <=1 
C868: x33+x40-y33_40 <=1 
C869: x33+x45 <=1 
C870: x33+x48-y33_48 <=1 
C871: x33+x53-y33_53 <=1 
C872: x33+x54-y33_54 <=1 
C873: x33+x56-y33_56 <=1 
C874: x33+x57-y33_57 <=1 
C875: x33+x58-y33_58 <=1 
C876: x33+x59-y33_59 <=1 
C877: x34+x37-y34_37 <=1 
C878: x34+x40 <=1 
C879: x34+x41 <=1 
C880: x34+x42-y34_42 <=1 
C881: x34+x45-y34_45 <=1 
C882: x34+x46-y34_46 <=1 
C883: x34+x48-y34_48 <=1 
C884: x34+x50-y34_50 <=1 
C885: x34+x52-y34_52 <=1 
C886: x34+x54-y34_54 <=1 
C887: x34+x56-y34_56 <=1 
C888: x34+x57 <=1 
C889: x34+x58 <=1 
C890: x34+x59-y34_59 <=1 
C891: x35+x36 <=1 
C892: x35+x37-y35_37 <=1 
C893: x35+x39 <=1 
C894: x35+x41-y35_41 <=1 
C895: x35+x42 <=1 
C896: x35+x47-y35_47 <=1 
C897: x35+x48 <=1 
C898: x35+x52-y35_52 <=1 
C899: x35+x53 <=1 
C900: x35+x54-y35_54 <=1 
C901: x35+x56-y35_56 <=1 
C902: x35+x57 <=1 
C903: x35+x58 <=1 
C904: x35+x59 <=1 
C905: x36+x37 <=1 
C906: x36+x38 <=1 
C907: x36+x39-y36_39 <=1 
C908: x36+x40-y36_40 <=1 
C909: x36+x42 <=1 
C910: x36+x44 <=1 
C911: x36+x46 <=1 
C912: x36+x47-y36_47 <=1 
C913: x36+x48-y36_48 <=1 
C914: x36+x51-y36_51 <=1 
C915: x36+x53-y36_53 <=1 
C916: x36+x54 <=1 
C917: x36+x57 <=1 
C918: x36+x59 <=1 
C919: x37+x39-y37_39 <=1 
C920: x37+x41-y37_41 <=1 
C921: x37+x43-y37_43 <=1 
C922: x37+x45 <=1 
C923: x37+x46-y37_46 <=1 
C924: x37+x47-y37_47 <=1 
C925: x37+x48 <=1 
C926: x37+x50-y37_50 <=1 
C927: x37+x54 <=1 
C928: x37+x55-y37_55 <=1 
C929: x37+x56-y37_56 <=1 
C930: x37+x58 <=1 
C931: x38+x39 <=1 
C932: x38+x40 <=1 
C933: x38+x41-y38_41 <=1 
C934: x38+x44-y38_44 <=1 
C935: x38+x46-y38_46 <=1 
C936: x38+x47-y38_47 <=1 
C937: x38+x52-y38_52 <=1 
C938: x38+x56 <=1 
C939: x38+x57-y38_57 <=1 
C940: x39+x41-y39_41 <=1 
C941: x39+x43 <=1 
C942: x39+x45 <=1 
C943: x39+x46-y39_46 <=1 
C944: x39+x48-y39_48 <=1 
C945: x39+x49 <=1 
C946: x39+x50-y39_50 <=1 
C947: x39+x54 <=1 
C948: x39+x57 <=1 
C949: x39+x58-y39_58 <=1 
C950: x39+x59-y39_59 <=1 
C951: x40+x42-y40_42 <=1 
C952: x40+x43 <=1 
C953: x40+x46 <=1 
C954: x40+x47-y40_47 <=1 
C955: x40+x48 <=1 
C956: x40+x51 <=1 
C957: x40+x54-y40_54 <=1 
C958: x40+x55 <=1 
C959: x40+x57 <=1 
C960: x40+x58 <=1 
C961: x40+x59 <=1 
C962: x41+x43-y41_43 <=1 
C963: x41+x44-y41_44 <=1 
C964: x41+x45-y41_45 <=1 
C965: x41+x46 <=1 
C966: x41+x47-y41_47 <=1 
C967: x41+x48-y41_48 <=1 
C968: x41+x51-y41_51 <=1 
C969: x41+x52-y41_52 <=1 
C970: x41+x53 <=1 
C971: x41+x54-y41_54 <=1 
C972: x41+x57 <=1 
C973: x41+x58 <=1 
C974: x42+x43 <=1 
C975: x42+x44-y42_44 <=1 
C976: x42+x45-y42_45 <=1 
C977: x42+x47-y42_47 <=1 
C978: x42+x49-y42_49 <=1 
C979: x42+x50 <=1 
C980: x42+x51 <=1 
C981: x42+x52 <=1 
C982: x42+x53-y42_53 <=1 
C983: x42+x54-y42_54 <=1 
C984: x42+x56-y42_56 <=1 
C985: x42+x57 <=1 
C986: x42+x58-y42_58 <=1 
C987: x42+x59-y42_59 <=1 
C988: x43+x44-y43_44 <=1 
C989: x43+x47 <=1 
C990: x43+x50-y43_50 <=1 
C991: x43+x51 <=1 
C992: x43+x52-y43_52 <=1 
C993: x43+x55-y43_55 <=1 
C994: x43+x56-y43_56 <=1 
C995: x43+x59-y43_59 <=1 
C996: x44+x45 <=1 
C997: x44+x47 <=1 
C998: x44+x48-y44_48 <=1 
C999: x44+x49-y44_49 <=1 
C1000: x44+x50-y44_50 <=1 
C1001: x44+x51 <=1 
C1002: x44+x52-y44_52 <=1 
C1003: x44+x54-y44_54 <=1 
C1004: x44+x56 <=1 
C1005: x44+x57-y44_57 <=1 
C1006: x45+x46-y45_46 <=1 
C1007: x45+x47-y45_47 <=1 
C1008: x45+x48-y45_48 <=1 
C1009: x45+x49 <=1 
C1010: x45+x50 <=1 
C1011: x45+x52-y45_52 <=1 
C1012: x45+x55-y45_55 <=1 
C1013: x45+x56 <=1 
C1014: x45+x57 <=1 
C1015: x46+x47-y46_47 <=1 
C1016: x46+x51 <=1 
C1017: x46+x52 <=1 
C1018: x46+x53 <=1 
C1019: x46+x58 <=1 
C1020: x47+x48 <=1 
C1021: x47+x49-y47_49 <=1 
C1022: x47+x51-y47_51 <=1 
C1023: x47+x52 <=1 
C1024: x47+x53 <=1 
C1025: x47+x56-y47_56 <=1 
C1026: x47+x58-y47_58 <=1 
C1027: x47+x59 <=1 
C1028: x48+x50-y48_50 <=1 
C1029: x48+x51-y48_51 <=1 
C1030: x48+x53-y48_53 <=1 
C1031: x48+x54-y48_54 <=1 
C1032: x48+x56 <=1 
C1033: x48+x57-y48_57 <=1 
C1034: x48+x59 <=1 
C1035: x49+x51 <=1 
C1036: x49+x52-y49_52 <=1 
C1037: x49+x59 <=1 
C1038: x50+x51 <=1 
C1039: x50+x53-y50_53 <=1 
C1040: x50+x54-y50_54 <=1 
C1041: x50+x55-y50_55 <=1 
C1042: x50+x56-y50_56 <=1 
C1043: x50+x57-y50_57 <=1 
C1044: x50+x58 <=1 
C1045: x50+x59 <=1 
C1046: x51+x52-y51_52 <=1 
C1047: x51+x54-y51_54 <=1 
C1048: x51+x56-y51_56 <=1 
C1049: x51+x58 <=1 
C1050: x51+x59 <=1 
C1051: x52+x53-y52_53 <=1 
C1052: x52+x56-y52_56 <=1 
C1053: x52+x57 <=1 
C1054: x53+x55-y53_55 <=1 
C1055: x53+x56-y53_56 <=1 
C1056: x53+x58-y53_58 <=1 
C1057: x53+x59-y53_59 <=1 
C1058: x54+x56 <=1 
C1059: x54+x57 <=1 
C1060: x54+x58 <=1 
C1061: x54+x59 <=1 
C1062: x55+x56-y55_56 <=1 
C1063: x55+x58 <=1 
C1064: x55+x59-y55_59 <=1 
C1065: x56+x57 <=1 
C1066: x56+x58-y56_58 <=1 
C1067: x57+x59 <=1 
C1068: x58+x59-y58_59 <=1 

binary
x0
x1
x2
x3
x4
x5
x6
x7
x8
x9
x10
x11
x12
x13
x14
x15
x16
x17
x18
x19
x20
x21
x22
x23
x24
x25
x26
x27
x28
x29
x30
x31
x32
x33
x34
x35
x36
x37
x38
x39
x40
x41
x42
x43
x44
x45
x46
x47
x48
x49
x50
x51
x52
x53
x54
x55
x56
x57
x58
x59
