problem_generation/data/GISP/train/er_n=60_m=1068_p=0.60_SET2_setparam=100.00_alpha=0.50_127.sol
objective value:                                 1177
x25                                                 1 	(obj:100)
x28                                                 1 	(obj:100)
x33                                                 1 	(obj:100)
x35                                                 1 	(obj:100)
x38                                                 1 	(obj:100)
x41                                                 1 	(obj:100)
x43                                                 1 	(obj:100)
x49                                                 1 	(obj:100)
x50                                                 1 	(obj:100)
x52                                                 1 	(obj:100)
x54                                                 1 	(obj:100)
x55                                                 1 	(obj:100)
y43_55                                              1 	(obj:-1)
y43_50                                              1 	(obj:-1)
y35_41                                              1 	(obj:-1)
y35_54                                              1 	(obj:-1)
y28_33                                              1 	(obj:-1)
y38_41                                              1 	(obj:-1)
y41_54                                              1 	(obj:-1)
y25_41                                              1 	(obj:-1)
y33_54                                              1 	(obj:-1)
y33_35                                              1 	(obj:-1)
y28_41                                              1 	(obj:-1)
y28_50                                              1 	(obj:-1)
y25_35                                              1 	(obj:-1)
y43_52                                              1 	(obj:-1)
y28_54                                              1 	(obj:-1)
y35_52                                              1 	(obj:-1)
y50_55                                              1 	(obj:-1)
y50_54                                              1 	(obj:-1)
y38_52                                              1 	(obj:-1)
y49_52                                              1 	(obj:-1)
y25_49                                              1 	(obj:-1)
y41_43                                              1 	(obj:-1)
y41_52                                              1 	(obj:-1)
